c Problem Statistics
c Number of variables: 924
c Number of clauses: 1104
c Parse time (sec.) : 0.00
c
p cnf 924 910
-196 0
114 0
2 0
15 0
16 0
30 0
8 0
10 0
11 0
25 0
14 0
34 0
53 0
51 0
71 0
62 0
65 0
75 0
91 0
113 0
115 0
118 0
105 0
132 0
135 0
128 0
134 0
152 0
166 0
153 0
167 0
155 0
158 0
157 0
162 0
178 0
170 0
183 0
172 0
189 0
182 0
84 0
40 0
24 0
37 0
78 0
103 0
143 0
147 0
186 0
187 0
195 0
117 0
154 0
168 0
116 -130 -131 -102 -89 0
804 151 164 -165 0
-804 151 164 165 0
-503 -87 -74 88 0
503 -88 -87 -74 0
-504 -87 74 88 0
504 -87 74 -88 0
-505 87 -74 88 0
505 -88 87 -74 0
-506 74 87 88 0
506 -88 74 87 0
803 -151 164 -165 0
-803 -151 164 165 0
802 151 -165 -164 0
-802 151 -164 165 0
512 -90 76 -89 0
-513 -76 89 90 0
513 -76 89 -90 0
-514 90 76 89 0
-473 -66 -79 80 0
473 -66 -79 -80 0
-474 66 -79 80 0
474 66 -79 -80 0
-475 -66 79 80 0
475 -66 79 -80 0
66 79 80 -476 0
476 66 -80 79 0
-481 -81 -68 82 0
481 -81 -68 -82 0
446 59 -72 -73 0
-447 -59 72 73 0
447 -59 72 -73 0
-448 59 72 73 0
-529 93 -80 94 0
-482 -81 68 82 0
482 -81 68 -82 0
-483 82 81 -68 0
483 -82 81 -68 0
-484 82 81 68 0
484 -82 81 68 0
793 -149 -161 -163 0
-793 -149 -161 163 0
784 159 -160 146 0
-784 160 159 146 0
783 159 -160 -146 0
-783 160 159 -146 0
782 -159 146 -160 0
-782 -159 146 160 0
781 -159 -146 -160 0
-781 -159 -146 160 0
-554 -100 101 87 0
554 -101 -100 87 0
430 54 67 -68 0
-435 70 -69 -56 0
435 -69 -70 -56 0
-436 70 -69 56 0
436 -69 -70 56 0
-437 -56 69 70 0
-511 90 -76 -89 0
511 -90 -76 -89 0
514 -90 76 89 0
801 -151 -165 -164 0
-801 -151 -164 165 0
796 161 149 -163 0
-796 161 149 163 0
-523 93 -79 -92 0
523 -93 -79 -92 0
-524 93 79 -92 0
524 -93 79 -92 0
-525 -79 92 93 0
525 -79 92 -93 0
-526 79 92 93 0
526 79 92 -93 0
-527 -93 -80 94 0
527 -93 -80 -94 0
-528 -93 80 94 0
528 -93 80 -94 0
-795 161 -149 163 0
794 149 -161 -163 0
-794 149 -161 163 0
-427 -67 68 -54 0
427 -67 -68 -54 0
-428 -67 68 54 0
428 -67 -68 54 0
-429 67 68 -54 0
429 -54 -68 67 0
-430 67 68 54 0
-463 77 76 -63 0
463 -77 76 -63 0
437 -56 69 -70 0
-438 70 56 69 0
438 -70 56 69 0
834 171 159 -173 0
-834 173 159 171 0
-441 -57 72 -58 0
441 -57 -72 -58 0
-442 -57 72 58 0
442 -57 -72 58 0
-401 60 -47 61 0
401 60 -47 -61 0
-402 60 47 61 0
402 60 47 -61 0
846 161 -176 175 0
-846 161 176 175 0
845 -176 -161 175 0
-845 176 -161 175 0
844 161 -176 -175 0
-844 161 176 -175 0
421 -66 64 -52 0
-422 66 64 52 0
422 -66 64 52 0
-423 -66 39 67 0
423 -66 39 -67 0
-424 -66 67 -39 0
424 -66 -67 -39 0
-425 66 39 67 0
425 66 39 -67 0
-426 66 67 -39 0
426 66 -67 -39 0
452 60 73 -74 0
833 171 -159 -173 0
-833 171 -159 173 0
832 -173 159 -171 0
-832 173 159 -171 0
831 -159 -173 -171 0
-831 173 -159 -171 0
-461 77 -76 -63 0
461 -77 -76 -63 0
-462 -76 63 77 0
462 -76 63 -77 0
735 -148 146 133 0
-665 -116 130 -129 0
-464 77 63 76 0
464 -77 63 76 0
-23 -38 -36 313 0
313 -38 9 23 0
-470 79 77 64 0
470 -79 77 64 0
-472 -77 79 64 0
-443 57 72 -58 0
443 57 -72 -58 0
-444 57 72 58 0
444 57 -72 58 0
-445 -59 -72 73 0
445 -59 -72 -73 0
-446 59 -72 73 0
-419 -52 -64 66 0
419 -52 -64 -66 0
-420 52 -64 66 0
420 52 -64 -66 0
-421 66 64 -52 0
448 59 72 -73 0
-449 -60 -73 74 0
449 -60 -73 -74 0
-450 60 -73 74 0
450 60 -74 -73 0
-451 -60 74 73 0
451 -60 -74 73 0
-452 60 74 73 0
-741 148 121 149 0
-651 126 -112 -125 0
651 -126 -112 -125 0
-652 126 -125 112 0
652 -126 -125 112 0
-653 125 -112 126 0
653 125 -112 -126 0
-654 126 112 125 0
654 -126 112 125 0
740 -148 -121 -149 0
-740 -148 -121 149 0
739 -148 121 -149 0
-739 -148 121 149 0
737 -148 -146 133 0
-737 148 -146 133 0
-698 -137 124 138 0
698 -137 124 -138 0
665 -129 -116 -130 0
-579 -93 106 107 0
579 -93 106 -107 0
-643 -110 -123 124 0
-580 93 106 107 0
580 93 106 -107 0
-581 -107 -94 108 0
581 -107 -94 -108 0
-582 -107 94 108 0
582 -107 94 -108 0
-583 107 -94 108 0
583 107 -94 -108 0
-584 107 94 108 0
584 107 94 -108 0
-585 -108 -95 109 0
585 -108 -95 -109 0
-586 -108 95 109 0
586 -108 95 -109 0
-587 108 -95 109 0
742 148 -121 -149 0
-742 148 -121 149 0
741 148 121 -149 0
-706 126 -139 140 0
-707 -126 139 140 0
712 -142 127 -141 0
714 -142 127 141 0
680 -104 -133 119 0
707 -126 -140 139 0
-714 141 127 142 0
-712 -141 127 142 0
713 -142 -127 141 0
-699 137 -124 138 0
-713 -127 142 141 0
-708 140 126 139 0
705 -126 -140 -139 0
708 126 139 -140 0
-711 -141 142 -127 0
-705 -126 140 -139 0
700 137 124 -138 0
711 -141 -142 -127 0
-700 137 124 138 0
699 137 -124 -138 0
-666 116 130 -129 0
666 -129 -130 116 0
-667 -116 129 130 0
667 -116 129 -130 0
-668 116 129 130 0
668 116 129 -130 0
730 -104 145 -146 0
-730 -104 145 146 0
729 -146 104 145 0
-729 104 146 145 0
-677 104 133 -119 0
677 -133 104 -119 0
-678 104 133 119 0
678 -133 119 104 0
-679 -119 133 -104 0
679 -104 -133 -119 0
-680 -104 133 119 0
-646 110 123 124 0
646 110 123 -124 0
706 126 -140 -139 0
592 -110 96 109 0
-593 -110 -97 111 0
593 -110 -111 -97 0
-594 -110 97 111 0
594 -110 97 -111 0
-595 110 -97 111 0
595 110 -111 -97 0
-596 110 97 111 0
596 110 97 -111 0
767 -141 -142 -156 0
-767 -141 -142 156 0
766 141 142 -156 0
643 -110 -123 -124 0
-766 141 142 156 0
765 141 -142 -156 0
-765 141 -142 156 0
-611 -101 116 -102 0
728 -104 -145 -146 0
-728 -104 -145 146 0
-512 90 76 -89 0
-557 -88 -101 102 0
557 -88 -101 -102 0
-558 -101 88 102 0
558 -101 88 -102 0
-559 -88 101 102 0
559 -88 101 -102 0
-560 88 101 102 0
560 88 101 -102 0
768 -141 142 -156 0
-768 -141 142 156 0
-575 104 106 -92 0
575 -106 104 -92 0
-577 -93 -106 107 0
577 -93 -106 -107 0
529 93 -80 -94 0
-530 93 80 94 0
530 93 80 -94 0
795 161 -149 -163 0
-592 110 96 109 0
591 109 -96 -110 0
588 108 95 -109 0
-589 -109 -96 110 0
-631 -107 -120 121 0
631 -107 -120 -121 0
-632 107 -120 121 0
632 107 -120 -121 0
-633 -107 120 121 0
633 -107 120 -121 0
638 108 121 -122 0
-634 107 120 121 0
634 107 120 -121 0
-635 -108 -121 122 0
-638 108 121 122 0
637 -108 121 -122 0
635 -108 -121 -122 0
-637 -108 121 122 0
-636 108 -121 122 0
636 108 -121 -122 0
-578 93 -106 107 0
578 93 -106 -107 0
727 -146 104 -145 0
-727 104 146 -145 0
725 144 -131 -145 0
-725 144 -131 145 0
-693 137 -123 -136 0
693 -137 -123 -136 0
-694 137 -136 123 0
694 -137 -136 123 0
-695 -123 136 137 0
695 -123 136 -137 0
-696 123 136 137 0
696 123 136 -137 0
-697 -137 -124 138 0
697 -137 -124 -138 0
589 -109 -96 -110 0
-590 110 96 -109 0
590 -109 96 -110 0
-591 109 -96 110 0
587 108 -95 -109 0
-288 18 -31 32 0
288 18 -31 -32 0
-644 110 -123 124 0
644 110 -123 -124 0
-645 -110 123 124 0
645 -110 123 -124 0
611 -101 -116 -102 0
-612 -101 116 102 0
612 102 -101 -116 0
-613 -102 101 116 0
613 -102 101 -116 0
-614 102 101 116 0
614 102 101 -116 0
750 137 150 -151 0
-750 137 150 151 0
749 -137 150 -151 0
-749 -137 150 151 0
748 137 -150 -151 0
-748 137 -150 151 0
877 -171 -185 -184 0
-877 -171 185 -184 0
234 -17 4 -18 0
-303 -22 -35 36 0
303 -22 -35 -36 0
-304 22 -35 36 0
304 22 -35 -36 0
-305 -22 35 36 0
305 -22 35 -36 0
22 35 36 -306 0
306 22 -36 35 0
866 180 139 -181 0
-866 180 139 181 0
865 180 -181 -139 0
-865 180 181 -139 0
-311 38 36 -23 0
311 -38 36 -23 0
-23 -313 -36 38 0
-314 38 -9 23 0
-588 108 95 109 0
287 -18 -31 -32 0
-230 17 3 -1 0
229 -17 -3 -1 0
-229 17 -3 -1 0
-315 -38 9 39 0
315 -38 9 -39 0
-289 -18 31 32 0
289 -18 31 -32 0
18 31 32 -290 0
290 18 -32 31 0
232 -17 3 1 0
-232 17 3 1 0
231 -17 -3 1 0
-231 17 -3 1 0
-299 -21 -33 35 0
299 -21 -33 -35 0
-300 21 -33 35 0
300 21 -33 -35 0
-301 -21 33 35 0
301 -21 33 -35 0
327 -28 -41 -42 0
747 -137 -150 -151 0
-747 -137 -150 151 0
-302 21 33 35 0
302 21 33 -35 0
-901 -190 191 -177 0
901 -190 -191 -177 0
-902 -190 191 177 0
902 -190 -191 177 0
860 -179 138 -180 0
-860 -179 138 180 0
859 -179 -180 -138 0
-859 180 -179 -138 0
-333 1 -43 44 0
333 1 -43 -44 0
-334 44 -43 -1 0
334 -44 -43 -1 0
-335 1 43 44 0
335 1 43 -44 0
314 -38 -9 23 0
-316 -38 -9 39 0
316 -38 -9 -39 0
-317 38 39 9 0
317 38 -39 9 0
-318 38 -9 39 0
318 38 -9 -39 0
864 -180 139 -181 0
-864 -180 139 181 0
863 -180 -181 -139 0
-863 -180 181 -139 0
862 179 138 -180 0
-862 179 138 180 0
861 179 -180 -138 0
-861 180 179 -138 0
-327 -28 -41 42 0
-242 6 -19 20 0
241 -6 -19 -20 0
-241 -6 -19 20 0
-253 -22 -9 23 0
253 -22 -9 -23 0
-255 22 -9 23 0
255 22 -9 -23 0
-256 22 9 23 0
254 -22 9 -23 0
256 22 9 -23 0
240 18 5 -19 0
-240 18 5 19 0
239 18 -5 -19 0
-239 18 -5 19 0
238 -18 5 -19 0
-238 -18 5 19 0
237 -18 -5 -19 0
-237 -18 -5 19 0
880 184 171 -185 0
-880 184 171 185 0
-243 -6 19 20 0
243 -6 19 -20 0
-244 6 19 20 0
230 -17 3 -1 0
244 6 19 -20 0
-245 -20 -7 21 0
271 -13 -27 26 0
-272 13 27 26 0
245 -20 -7 -21 0
-246 -20 7 21 0
246 -20 7 -21 0
-247 20 -7 21 0
247 20 -7 -21 0
-248 20 7 21 0
248 20 7 -21 0
-249 -21 22 7 0
249 -21 -22 7 0
-250 -21 -7 22 0
250 -21 -7 -22 0
-251 21 7 22 0
251 21 7 -22 0
-252 21 -7 22 0
252 21 -7 -22 0
242 6 -19 -20 0
878 -184 171 -185 0
-878 -184 171 185 0
-254 -22 9 23 0
-234 -17 4 18 0
233 -17 -4 -18 0
-233 -17 -4 18 0
-283 31 1 -17 0
283 -31 1 -17 0
-284 17 1 31 0
284 17 1 -31 0
-285 -17 31 -1 0
285 -17 -31 -1 0
-286 17 31 -1 0
286 17 -31 -1 0
-287 -18 -31 32 0
879 -171 -185 184 0
-879 -171 185 184 0
-269 -13 -26 27 0
269 -13 -26 -27 0
-270 13 -26 27 0
-271 -13 26 27 0
-365 -38 -50 52 0
365 -38 -50 -52 0
-366 38 -50 52 0
366 38 -50 -52 0
-367 -38 50 52 0
367 -38 50 -52 0
272 13 -27 26 0
-273 -13 -27 28 0
273 -28 -27 -13 0
-274 28 13 -27 0
274 -28 13 -27 0
236 17 4 -18 0
-236 17 4 18 0
235 17 -4 -18 0
-235 17 -4 18 0
-275 -13 27 28 0
275 -13 27 -28 0
-276 13 27 28 0
276 13 27 -28 0
342 -45 32 -46 0
-342 -45 32 46 0
341 -45 -32 -46 0
-912 179 192 193 0
-341 -45 -32 46 0
31 -45 44 340 0
-847 -163 -176 177 0
-387 -44 -57 58 0
387 -44 -57 -58 0
-388 44 -57 58 0
388 44 -57 -58 0
-389 -44 57 58 0
389 -44 57 -58 0
-390 44 57 58 0
390 44 57 -58 0
360 36 49 -50 0
858 -179 -164 165 0
-858 179 -164 165 0
270 13 -27 -26 0
857 -165 -164 -179 0
-857 -165 -164 179 0
-395 -59 -46 60 0
395 -59 -46 -60 0
-396 -59 46 60 0
396 -59 46 -60 0
-397 59 -46 60 0
397 59 -46 -60 0
-398 46 59 60 0
398 46 59 -60 0
173 171 188 -185 0
-368 38 50 52 0
368 38 50 -52 0
-916 180 193 194 0
916 180 193 -194 0
856 165 164 -179 0
-856 165 164 179 0
855 -165 164 -179 0
-855 -165 164 179 0
-378 -54 41 55 0
-400 -60 47 61 0
400 -60 47 -61 0
378 -54 41 -55 0
850 163 176 -177 0
-850 163 176 177 0
849 -163 176 -177 0
-849 -163 176 177 0
848 163 -176 -177 0
-848 163 -176 177 0
847 -163 -176 -177 0
843 -176 -161 -175 0
-843 176 -161 -175 0
842 -175 174 161 0
-842 175 174 161 0
-391 -58 -45 59 0
391 -58 -45 -59 0
-392 -58 45 59 0
392 -58 45 -59 0
-393 58 -45 59 0
393 58 -45 -59 0
394 58 45 -59 0
352 47 33 -48 0
344 45 32 -46 0
913 -180 -193 -194 0
336 -44 43 -1 0
-336 44 43 -1 0
-355 -35 48 49 0
-399 -60 -47 61 0
399 -60 -47 -61 0
-344 45 32 46 0
343 45 -32 -46 0
-343 45 -32 46 0
904 177 190 -191 0
-904 177 190 191 0
-353 -48 -35 49 0
353 -48 -35 -49 0
-354 -48 35 49 0
354 -48 35 -49 0
903 -177 190 -191 0
-903 -177 190 191 0
-328 28 -41 42 0
328 28 -41 -42 0
-329 -28 41 42 0
329 -28 41 -42 0
-330 28 41 42 0
330 28 41 -42 0
345 -46 -33 -47 0
-346 -46 33 47 0
346 -46 33 -47 0
-347 46 -33 47 0
347 46 -33 -47 0
-348 46 33 47 0
348 46 33 -47 0
-349 -47 48 -33 0
349 -47 -48 -33 0
-350 -47 33 48 0
350 -48 33 -47 0
-351 48 47 -33 0
-394 58 45 59 0
351 -48 47 -33 0
-352 47 33 48 0
472 -77 -79 64 0
161 -146 -160 133 0
-27 26 -39 41 0
-313 38 9 23 0
-27 41 39 -26 0
355 -35 48 -49 0
-356 35 48 49 0
356 35 48 -49 0
-357 -36 -49 50 0
357 -36 -49 -50 0
-358 36 -49 50 0
358 36 -49 -50 0
-914 180 -193 194 0
914 180 -193 -194 0
-915 193 -180 194 0
915 193 -180 -194 0
-359 -36 49 50 0
359 -36 49 -50 0
-360 36 49 50 0
912 179 192 -193 0
-909 -179 -192 193 0
909 -179 -192 -193 0
-910 179 -192 193 0
910 179 -192 -193 0
-911 -179 192 193 0
911 -179 192 -193 0
-345 -46 47 -33 0
-340 31 44 45 0
338 31 -44 -45 0
-338 31 -44 45 0
337 -44 -31 -45 0
-337 -44 -31 45 0
-913 -180 -193 194 0
142 -129 144 130 0
-735 148 146 133 0
-70 -98 -97 -83 0
-339 44 -31 45 0
339 44 -31 -45 0
-207 7 -6 0
-202 3 4 0
206 5 -6 0
-278 1 29 0
164 192 191 0
-576 92 106 0
-121 -136 122 0
576 -106 92 0
873 -184 -169 0
-873 184 -169 0
-553 -87 101 0
26 -41 39 0
553 -101 -87 0
-171 173 -188 0
817 141 -169 0
723 -145 -144 0
-723 145 -144 0
-840 175 -174 0
332 29 -43 0
200 1 -3 0
-547 99 -85 0
656 -127 99 0
99 -548 85 0
548 85 -99 0
547 -99 -85 0
76 -74 61 0
-200 1 3 0
199 -1 -3 0
-199 -1 3 0
-77 -92 -90 0
220 -13 12 0
-220 13 12 0
219 -13 -12 0
-219 13 -12 0
218 -9 -12 0
201 -3 -4 0
-656 99 127 0
494 57 -85 0
-471 79 -64 0
-876 184 169 0
163 150 -164 0
876 -184 169 0
736 -148 -133 0
-377 -41 55 0
380 54 -55 0
-380 54 55 0
-841 175 -161 0
841 -175 -161 0
-736 148 -133 0
471 -79 -64 0
-726 145 131 0
82 96 -95 0
726 -145 131 0
377 -41 -55 0
-817 141 169 0
840 -175 -174 0
-72 -86 85 0
625 -119 -104 0
-625 -104 119 0
-556 100 101 0
624 -119 104 0
556 -101 100 0
-624 104 119 0
123 -109 122 0
77 92 64 0
-190 -176 175 0
-573 -104 106 0
104 90 89 0
278 1 -29 0
573 -106 -104 0
277 -1 -29 0
-218 -9 12 0
-277 -1 29 0
174 -173 160 0
-710 141 127 0
709 -141 -127 0
710 -141 127 0
-709 141 -127 0
88 -74 -89 0
-171 156 -169 0
138 -139 -125 0
818 -141 -169 0
-818 -141 169 0
124 -111 -125 0
-494 57 85 0
95 94 -81 0
493 -57 -85 0
-493 -57 85 0
-12 26 9 0
185 173 -188 0
-188 -173 174 0
924 -194 -181 0
922 194 -181 0
70 -98 83 0
-120 119 -106 0
-123 109 122 0
19 32 -33 0
-129 101 127 0
-104 -89 -102 0
98 -70 83 0
-42 56 -55 0
207 -7 -6 0
-385 57 -43 0
385 -57 -43 0
-386 57 43 0
386 -57 43 0
96 -97 -83 0
-201 -3 4 0
70 98 -83 0
67 80 81 0
82 83 69 0
49 -63 61 0
50 -63 64 0
-111 98 112 0
-73 -86 87 0
-68 -55 -69 0
-204 4 5 0
-208 7 6 0
208 -7 6 0
-212 -7 9 0
211 7 -9 0
-211 7 9 0
203 -4 -5 0
-203 -4 5 0
202 3 -4 0
-332 29 43 0
-331 -29 43 0
331 -29 -43 0
655 -127 -99 0
-655 -99 127 0
-149 150 136 0
99 -100 86 0
104 90 102 0
145 159 -144 0
-206 5 6 0
-39 -54 -26 0
123 109 -122 0
-109 -123 -122 0
-92 -90 -64 0
217 -12 9 0
-217 9 12 0
212 -7 -9 0
-205 6 -5 0
204 4 -5 0
205 -6 -5 0
-142 -144 0
-49 63 0
-9 -26 0
-119 120 0
-112 -98 0
-88 89 0
-56 55 0
42 -56 0
92 90 0
164 -150 0
-163 164 0
139 125 0
-138 139 0
-156 171 0
169 171 0
95 -96 0
97 -96 0
-127 129 0
173 -174 0
-104 -90 0
188 -174 0
-191 -192 0
102 131 0
-124 125 0
-101 129 0
73 -87 0
131 130 0
-87 86 0
-145 -159 0
-159 144 0
-133 -161 0
-76 -61 0
72 86 0
-86 100 0
98 97 0
176 190 0
27 -41 0
-175 190 0
74 89 0
-122 136 0
-76 74 0
-99 100 0
125 111 0
-19 33 0
-32 33 0
-112 111 0
-67 -81 0
-80 -81 0
-83 -82 0
-69 -83 0
-41 54 0
83 97 0
26 54 0
39 54 0
921 181 0
-130 -144 0
-96 -82 0
-85 86 0
-174 -160 0
12 -26 0
160 -161 0
-136 -150 0
149 -150 0
89 131 0
-116 131 0
146 -161 0
-192 -164 0
-94 -95 0
81 -95 0
106 120 0
-61 63 0
-50 -64 0
63 -64 0
121 136 0
55 69 0
68 69 0
129 -144 0
c restarts              : 682
c conflicts             : 13             (162 /sec)
c decisions             : 493765         (0.00 % random) (6172062 /sec)
c propagations          : 698117         (8726462 /sec)
c conflict literals     : 129            (0.00 % deleted)
c CPU time (sec.): 0.08
